c Standarized MaxSat Instance
c{
c "sha1sum": "b60b10b3c603e55f79d7298cfed5dd8b359303f1",
c "nvars": 60,
c "ncls": 1200,
c "nhards": 0,
c "nhard_len_stats":
c    { "min": 0, "max": 0, "ave": 0.00,
c      "stddev": 0.00 },
c "nsofts": 1200,
c "nsoft_len_stats":
c    { "min": 2, "max": 2, "ave": 2.00,
c      "stddev": 0.00 },
c "nsoft_wts": 10,
c "soft_wt_stats":
c    { "min": 1, "max": 10, "ave": 5.69,
c      "stddev": 2.81 }
c}
c------------------------------------------------------------
c Generated after 1 tries
c Graph with 60 nodes and 600 edges, Max edges:1770
p wcnf 60 1200 6827
9 1 10 0
9 -1 -10 0
4 1 13 0
4 -1 -13 0
8 1 14 0
8 -1 -14 0
8 1 15 0
8 -1 -15 0
10 1 16 0
10 -1 -16 0
2 1 17 0
2 -1 -17 0
4 1 18 0
4 -1 -18 0
8 1 20 0
8 -1 -20 0
3 1 21 0
3 -1 -21 0
6 1 25 0
6 -1 -25 0
5 1 29 0
5 -1 -29 0
7 1 30 0
7 -1 -30 0
4 1 32 0
4 -1 -32 0
6 1 33 0
6 -1 -33 0
10 1 34 0
10 -1 -34 0
10 1 35 0
10 -1 -35 0
7 1 37 0
7 -1 -37 0
8 1 39 0
8 -1 -39 0
2 1 46 0
2 -1 -46 0
7 1 47 0
7 -1 -47 0
1 1 52 0
1 -1 -52 0
3 1 53 0
3 -1 -53 0
2 1 55 0
2 -1 -55 0
9 1 59 0
9 -1 -59 0
2 1 60 0
2 -1 -60 0
5 2 4 0
5 -2 -4 0
2 2 5 0
2 -2 -5 0
2 2 6 0
2 -2 -6 0
10 2 8 0
10 -2 -8 0
3 2 16 0
3 -2 -16 0
6 2 19 0
6 -2 -19 0
9 2 21 0
9 -2 -21 0
7 2 23 0
7 -2 -23 0
3 2 26 0
3 -2 -26 0
7 2 27 0
7 -2 -27 0
6 2 28 0
6 -2 -28 0
5 2 34 0
5 -2 -34 0
10 2 35 0
10 -2 -35 0
3 2 38 0
3 -2 -38 0
8 2 46 0
8 -2 -46 0
6 2 53 0
6 -2 -53 0
8 2 54 0
8 -2 -54 0
5 2 55 0
5 -2 -55 0
9 2 60 0
9 -2 -60 0
3 3 6 0
3 -3 -6 0
4 3 9 0
4 -3 -9 0
9 3 13 0
9 -3 -13 0
10 3 14 0
10 -3 -14 0
1 3 15 0
1 -3 -15 0
10 3 16 0
10 -3 -16 0
6 3 18 0
6 -3 -18 0
1 3 20 0
1 -3 -20 0
2 3 22 0
2 -3 -22 0
7 3 23 0
7 -3 -23 0
9 3 24 0
9 -3 -24 0
4 3 25 0
4 -3 -25 0
1 3 27 0
1 -3 -27 0
1 3 28 0
1 -3 -28 0
5 3 31 0
5 -3 -31 0
1 3 32 0
1 -3 -32 0
3 3 33 0
3 -3 -33 0
10 3 36 0
10 -3 -36 0
10 3 37 0
10 -3 -37 0
9 3 38 0
9 -3 -38 0
3 3 40 0
3 -3 -40 0
6 3 41 0
6 -3 -41 0
4 3 45 0
4 -3 -45 0
8 3 52 0
8 -3 -52 0
6 3 53 0
6 -3 -53 0
7 3 57 0
7 -3 -57 0
6 3 59 0
6 -3 -59 0
1 4 5 0
1 -4 -5 0
5 4 8 0
5 -4 -8 0
10 4 9 0
10 -4 -9 0
10 4 10 0
10 -4 -10 0
8 4 11 0
8 -4 -11 0
3 4 13 0
3 -4 -13 0
8 4 14 0
8 -4 -14 0
7 4 16 0
7 -4 -16 0
4 4 18 0
4 -4 -18 0
7 4 22 0
7 -4 -22 0
2 4 24 0
2 -4 -24 0
5 4 27 0
5 -4 -27 0
9 4 28 0
9 -4 -28 0
9 4 29 0
9 -4 -29 0
4 4 30 0
4 -4 -30 0
3 4 31 0
3 -4 -31 0
9 4 33 0
9 -4 -33 0
4 4 35 0
4 -4 -35 0
7 4 39 0
7 -4 -39 0
10 4 40 0
10 -4 -40 0
6 4 42 0
6 -4 -42 0
7 4 44 0
7 -4 -44 0
9 4 51 0
9 -4 -51 0
5 4 52 0
5 -4 -52 0
10 4 54 0
10 -4 -54 0
4 4 55 0
4 -4 -55 0
9 4 56 0
9 -4 -56 0
7 4 58 0
7 -4 -58 0
10 5 10 0
10 -5 -10 0
5 5 12 0
5 -5 -12 0
3 5 14 0
3 -5 -14 0
10 5 15 0
10 -5 -15 0
10 5 17 0
10 -5 -17 0
2 5 23 0
2 -5 -23 0
9 5 26 0
9 -5 -26 0
7 5 33 0
7 -5 -33 0
5 5 35 0
5 -5 -35 0
7 5 36 0
7 -5 -36 0
3 5 37 0
3 -5 -37 0
8 5 38 0
8 -5 -38 0
4 5 40 0
4 -5 -40 0
5 5 44 0
5 -5 -44 0
3 5 46 0
3 -5 -46 0
2 5 52 0
2 -5 -52 0
3 5 54 0
3 -5 -54 0
6 5 60 0
6 -5 -60 0
5 6 11 0
5 -6 -11 0
2 6 12 0
2 -6 -12 0
10 6 16 0
10 -6 -16 0
2 6 20 0
2 -6 -20 0
2 6 26 0
2 -6 -26 0
5 6 28 0
5 -6 -28 0
8 6 30 0
8 -6 -30 0
10 6 37 0
10 -6 -37 0
10 6 42 0
10 -6 -42 0
7 6 44 0
7 -6 -44 0
4 6 45 0
4 -6 -45 0
8 6 46 0
8 -6 -46 0
4 6 49 0
4 -6 -49 0
3 6 53 0
3 -6 -53 0
3 6 56 0
3 -6 -56 0
6 6 57 0
6 -6 -57 0
3 7 8 0
3 -7 -8 0
2 7 10 0
2 -7 -10 0
8 7 11 0
8 -7 -11 0
2 7 13 0
2 -7 -13 0
8 7 22 0
8 -7 -22 0
2 7 33 0
2 -7 -33 0
8 7 35 0
8 -7 -35 0
1 7 39 0
1 -7 -39 0
10 7 42 0
10 -7 -42 0
1 7 46 0
1 -7 -46 0
6 7 54 0
6 -7 -54 0
2 7 57 0
2 -7 -57 0
3 8 9 0
3 -8 -9 0
8 8 12 0
8 -8 -12 0
8 8 13 0
8 -8 -13 0
7 8 25 0
7 -8 -25 0
10 8 32 0
10 -8 -32 0
7 8 36 0
7 -8 -36 0
8 8 37 0
8 -8 -37 0
1 8 38 0
1 -8 -38 0
2 8 39 0
2 -8 -39 0
6 8 42 0
6 -8 -42 0
1 8 43 0
1 -8 -43 0
1 8 47 0
1 -8 -47 0
3 8 57 0
3 -8 -57 0
5 8 58 0
5 -8 -58 0
9 9 14 0
9 -9 -14 0
6 9 15 0
6 -9 -15 0
8 9 17 0
8 -9 -17 0
1 9 19 0
1 -9 -19 0
2 9 22 0
2 -9 -22 0
10 9 23 0
10 -9 -23 0
3 9 26 0
3 -9 -26 0
9 9 32 0
9 -9 -32 0
2 9 36 0
2 -9 -36 0
10 9 38 0
10 -9 -38 0
1 9 40 0
1 -9 -40 0
9 9 41 0
9 -9 -41 0
1 9 42 0
1 -9 -42 0
1 9 47 0
1 -9 -47 0
10 9 48 0
10 -9 -48 0
6 9 49 0
6 -9 -49 0
2 9 51 0
2 -9 -51 0
2 9 52 0
2 -9 -52 0
4 9 55 0
4 -9 -55 0
10 9 58 0
10 -9 -58 0
9 9 60 0
9 -9 -60 0
4 10 11 0
4 -10 -11 0
6 10 14 0
6 -10 -14 0
6 10 15 0
6 -10 -15 0
5 10 18 0
5 -10 -18 0
7 10 29 0
7 -10 -29 0
1 10 32 0
1 -10 -32 0
6 10 33 0
6 -10 -33 0
8 10 35 0
8 -10 -35 0
4 10 38 0
4 -10 -38 0
10 10 41 0
10 -10 -41 0
6 10 44 0
6 -10 -44 0
9 10 45 0
9 -10 -45 0
8 10 49 0
8 -10 -49 0
7 10 50 0
7 -10 -50 0
1 10 53 0
1 -10 -53 0
8 10 55 0
8 -10 -55 0
9 10 60 0
9 -10 -60 0
10 11 12 0
10 -11 -12 0
9 11 17 0
9 -11 -17 0
9 11 20 0
9 -11 -20 0
10 11 21 0
10 -11 -21 0
8 11 22 0
8 -11 -22 0
10 11 24 0
10 -11 -24 0
10 11 26 0
10 -11 -26 0
7 11 30 0
7 -11 -30 0
5 11 31 0
5 -11 -31 0
2 11 35 0
2 -11 -35 0
9 11 36 0
9 -11 -36 0
9 11 37 0
9 -11 -37 0
1 11 40 0
1 -11 -40 0
7 11 42 0
7 -11 -42 0
3 11 43 0
3 -11 -43 0
7 11 46 0
7 -11 -46 0
3 11 49 0
3 -11 -49 0
8 11 50 0
8 -11 -50 0
4 11 53 0
4 -11 -53 0
4 11 58 0
4 -11 -58 0
3 12 13 0
3 -12 -13 0
1 12 18 0
1 -12 -18 0
7 12 20 0
7 -12 -20 0
3 12 22 0
3 -12 -22 0
7 12 27 0
7 -12 -27 0
6 12 29 0
6 -12 -29 0
10 12 34 0
10 -12 -34 0
3 12 36 0
3 -12 -36 0
6 12 37 0
6 -12 -37 0
8 12 38 0
8 -12 -38 0
2 12 39 0
2 -12 -39 0
5 12 45 0
5 -12 -45 0
6 12 48 0
6 -12 -48 0
10 12 56 0
10 -12 -56 0
5 13 15 0
5 -13 -15 0
4 13 17 0
4 -13 -17 0
9 13 20 0
9 -13 -20 0
5 13 22 0
5 -13 -22 0
1 13 28 0
1 -13 -28 0
4 13 29 0
4 -13 -29 0
6 13 30 0
6 -13 -30 0
9 13 33 0
9 -13 -33 0
3 13 34 0
3 -13 -34 0
7 13 35 0
7 -13 -35 0
5 13 36 0
5 -13 -36 0
5 13 37 0
5 -13 -37 0
4 13 44 0
4 -13 -44 0
8 13 47 0
8 -13 -47 0
2 13 49 0
2 -13 -49 0
7 13 52 0
7 -13 -52 0
1 13 54 0
1 -13 -54 0
5 13 55 0
5 -13 -55 0
7 13 56 0
7 -13 -56 0
7 13 58 0
7 -13 -58 0
7 13 60 0
7 -13 -60 0
4 14 15 0
4 -14 -15 0
2 14 18 0
2 -14 -18 0
7 14 24 0
7 -14 -24 0
7 14 29 0
7 -14 -29 0
8 14 32 0
8 -14 -32 0
4 14 33 0
4 -14 -33 0
8 14 38 0
8 -14 -38 0
3 14 39 0
3 -14 -39 0
10 14 40 0
10 -14 -40 0
7 14 46 0
7 -14 -46 0
7 14 48 0
7 -14 -48 0
3 14 50 0
3 -14 -50 0
6 14 51 0
6 -14 -51 0
1 14 54 0
1 -14 -54 0
3 14 57 0
3 -14 -57 0
9 14 58 0
9 -14 -58 0
7 14 60 0
7 -14 -60 0
1 15 17 0
1 -15 -17 0
2 15 19 0
2 -15 -19 0
4 15 21 0
4 -15 -21 0
6 15 26 0
6 -15 -26 0
6 15 29 0
6 -15 -29 0
7 15 33 0
7 -15 -33 0
3 15 35 0
3 -15 -35 0
8 15 37 0
8 -15 -37 0
3 15 38 0
3 -15 -38 0
4 15 39 0
4 -15 -39 0
2 15 40 0
2 -15 -40 0
10 15 42 0
10 -15 -42 0
1 15 44 0
1 -15 -44 0
9 15 57 0
9 -15 -57 0
4 16 20 0
4 -16 -20 0
2 16 22 0
2 -16 -22 0
5 16 25 0
5 -16 -25 0
10 16 26 0
10 -16 -26 0
10 16 27 0
10 -16 -27 0
8 16 28 0
8 -16 -28 0
7 16 29 0
7 -16 -29 0
2 16 36 0
2 -16 -36 0
7 16 43 0
7 -16 -43 0
4 16 51 0
4 -16 -51 0
8 16 53 0
8 -16 -53 0
10 16 56 0
10 -16 -56 0
10 16 57 0
10 -16 -57 0
9 17 19 0
9 -17 -19 0
3 17 21 0
3 -17 -21 0
8 17 22 0
8 -17 -22 0
6 17 24 0
6 -17 -24 0
3 17 25 0
3 -17 -25 0
10 17 29 0
10 -17 -29 0
10 17 31 0
10 -17 -31 0
9 17 32 0
9 -17 -32 0
5 17 33 0
5 -17 -33 0
6 17 35 0
6 -17 -35 0
2 17 36 0
2 -17 -36 0
3 17 45 0
3 -17 -45 0
9 17 47 0
9 -17 -47 0
5 17 50 0
5 -17 -50 0
5 17 51 0
5 -17 -51 0
9 17 52 0
9 -17 -52 0
5 17 56 0
5 -17 -56 0
3 17 60 0
3 -17 -60 0
2 18 20 0
2 -18 -20 0
7 18 24 0
7 -18 -24 0
8 18 27 0
8 -18 -27 0
2 18 28 0
2 -18 -28 0
7 18 29 0
7 -18 -29 0
5 18 30 0
5 -18 -30 0
9 18 31 0
9 -18 -31 0
8 18 32 0
8 -18 -32 0
2 18 37 0
2 -18 -37 0
3 18 41 0
3 -18 -41 0
5 18 44 0
5 -18 -44 0
2 19 21 0
2 -19 -21 0
2 19 24 0
2 -19 -24 0
4 19 28 0
4 -19 -28 0
4 19 30 0
4 -19 -30 0
10 19 43 0
10 -19 -43 0
10 19 47 0
10 -19 -47 0
7 19 50 0
7 -19 -50 0
9 19 51 0
9 -19 -51 0
9 19 52 0
9 -19 -52 0
5 19 53 0
5 -19 -53 0
4 19 54 0
4 -19 -54 0
4 19 55 0
4 -19 -55 0
7 19 56 0
7 -19 -56 0
7 20 24 0
7 -20 -24 0
3 20 25 0
3 -20 -25 0
2 20 27 0
2 -20 -27 0
1 20 29 0
1 -20 -29 0
2 20 32 0
2 -20 -32 0
7 20 36 0
7 -20 -36 0
4 20 37 0
4 -20 -37 0
3 20 44 0
3 -20 -44 0
4 20 46 0
4 -20 -46 0
1 20 49 0
1 -20 -49 0
5 20 51 0
5 -20 -51 0
10 20 54 0
10 -20 -54 0
6 20 56 0
6 -20 -56 0
3 20 57 0
3 -20 -57 0
7 21 24 0
7 -21 -24 0
8 21 29 0
8 -21 -29 0
5 21 38 0
5 -21 -38 0
2 21 41 0
2 -21 -41 0
9 21 45 0
9 -21 -45 0
7 21 53 0
7 -21 -53 0
6 21 60 0
6 -21 -60 0
3 22 25 0
3 -22 -25 0
6 22 26 0
6 -22 -26 0
5 22 28 0
5 -22 -28 0
9 22 31 0
9 -22 -31 0
4 22 36 0
4 -22 -36 0
3 22 37 0
3 -22 -37 0
4 22 42 0
4 -22 -42 0
8 22 43 0
8 -22 -43 0
7 22 44 0
7 -22 -44 0
10 22 46 0
10 -22 -46 0
4 22 47 0
4 -22 -47 0
9 22 49 0
9 -22 -49 0
2 22 50 0
2 -22 -50 0
5 22 52 0
5 -22 -52 0
1 22 54 0
1 -22 -54 0
8 22 56 0
8 -22 -56 0
8 23 25 0
8 -23 -25 0
3 23 29 0
3 -23 -29 0
2 23 30 0
2 -23 -30 0
9 23 34 0
9 -23 -34 0
8 23 35 0
8 -23 -35 0
1 23 37 0
1 -23 -37 0
5 23 38 0
5 -23 -38 0
10 23 39 0
10 -23 -39 0
8 23 41 0
8 -23 -41 0
3 23 42 0
3 -23 -42 0
5 23 44 0
5 -23 -44 0
9 23 47 0
9 -23 -47 0
1 23 52 0
1 -23 -52 0
1 23 53 0
1 -23 -53 0
4 23 55 0
4 -23 -55 0
4 23 56 0
4 -23 -56 0
7 23 58 0
7 -23 -58 0
9 23 59 0
9 -23 -59 0
2 24 35 0
2 -24 -35 0
1 24 47 0
1 -24 -47 0
1 24 48 0
1 -24 -48 0
5 24 52 0
5 -24 -52 0
8 24 53 0
8 -24 -53 0
7 24 55 0
7 -24 -55 0
5 25 27 0
5 -25 -27 0
2 25 40 0
2 -25 -40 0
6 25 41 0
6 -25 -41 0
6 25 43 0
6 -25 -43 0
6 25 49 0
6 -25 -49 0
6 25 51 0
6 -25 -51 0
4 25 56 0
4 -25 -56 0
4 26 27 0
4 -26 -27 0
9 26 30 0
9 -26 -30 0
5 26 33 0
5 -26 -33 0
2 26 54 0
2 -26 -54 0
7 27 33 0
7 -27 -33 0
6 27 35 0
6 -27 -35 0
7 27 36 0
7 -27 -36 0
6 27 37 0
6 -27 -37 0
3 27 38 0
3 -27 -38 0
9 27 40 0
9 -27 -40 0
1 27 41 0
1 -27 -41 0
1 27 45 0
1 -27 -45 0
10 27 48 0
10 -27 -48 0
2 27 49 0
2 -27 -49 0
5 27 50 0
5 -27 -50 0
3 27 51 0
3 -27 -51 0
9 27 53 0
9 -27 -53 0
3 27 54 0
3 -27 -54 0
4 27 56 0
4 -27 -56 0
9 28 30 0
9 -28 -30 0
4 28 32 0
4 -28 -32 0
9 28 33 0
9 -28 -33 0
7 28 34 0
7 -28 -34 0
1 28 37 0
1 -28 -37 0
3 28 45 0
3 -28 -45 0
8 28 46 0
8 -28 -46 0
7 28 49 0
7 -28 -49 0
9 28 51 0
9 -28 -51 0
4 28 58 0
4 -28 -58 0
3 29 30 0
3 -29 -30 0
2 29 31 0
2 -29 -31 0
7 29 36 0
7 -29 -36 0
2 29 43 0
2 -29 -43 0
7 29 54 0
7 -29 -54 0
8 29 55 0
8 -29 -55 0
8 29 57 0
8 -29 -57 0
3 29 60 0
3 -29 -60 0
5 30 38 0
5 -30 -38 0
4 30 40 0
4 -30 -40 0
5 30 41 0
5 -30 -41 0
3 30 42 0
3 -30 -42 0
4 30 43 0
4 -30 -43 0
6 30 45 0
6 -30 -45 0
2 30 48 0
2 -30 -48 0
6 30 49 0
6 -30 -49 0
1 30 52 0
1 -30 -52 0
4 30 55 0
4 -30 -55 0
4 30 57 0
4 -30 -57 0
4 30 59 0
4 -30 -59 0
8 30 60 0
8 -30 -60 0
3 31 34 0
3 -31 -34 0
7 31 37 0
7 -31 -37 0
6 31 39 0
6 -31 -39 0
10 31 40 0
10 -31 -40 0
7 31 42 0
7 -31 -42 0
9 31 43 0
9 -31 -43 0
7 31 54 0
7 -31 -54 0
4 31 57 0
4 -31 -57 0
7 31 59 0
7 -31 -59 0
1 31 60 0
1 -31 -60 0
6 32 38 0
6 -32 -38 0
9 32 40 0
9 -32 -40 0
7 32 41 0
7 -32 -41 0
7 32 43 0
7 -32 -43 0
6 32 47 0
6 -32 -47 0
5 32 54 0
5 -32 -54 0
4 32 55 0
4 -32 -55 0
8 32 56 0
8 -32 -56 0
9 32 58 0
9 -32 -58 0
7 33 35 0
7 -33 -35 0
2 33 37 0
2 -33 -37 0
1 33 39 0
1 -33 -39 0
1 33 40 0
1 -33 -40 0
7 33 42 0
7 -33 -42 0
2 33 44 0
2 -33 -44 0
7 33 54 0
7 -33 -54 0
8 33 57 0
8 -33 -57 0
6 34 38 0
6 -34 -38 0
1 34 39 0
1 -34 -39 0
1 34 41 0
1 -34 -41 0
4 34 45 0
4 -34 -45 0
3 34 49 0
3 -34 -49 0
7 34 52 0
7 -34 -52 0
9 34 54 0
9 -34 -54 0
2 34 55 0
2 -34 -55 0
4 34 56 0
4 -34 -56 0
7 34 58 0
7 -34 -58 0
9 34 60 0
9 -34 -60 0
7 35 41 0
7 -35 -41 0
4 35 42 0
4 -35 -42 0
9 35 44 0
9 -35 -44 0
2 35 45 0
2 -35 -45 0
2 35 48 0
2 -35 -48 0
6 35 50 0
6 -35 -50 0
9 35 52 0
9 -35 -52 0
7 35 53 0
7 -35 -53 0
10 35 55 0
10 -35 -55 0
2 35 56 0
2 -35 -56 0
4 35 58 0
4 -35 -58 0
8 36 37 0
8 -36 -37 0
9 36 45 0
9 -36 -45 0
6 36 46 0
6 -36 -46 0
8 36 48 0
8 -36 -48 0
10 36 52 0
10 -36 -52 0
3 36 56 0
3 -36 -56 0
10 36 59 0
10 -36 -59 0
6 37 39 0
6 -37 -39 0
10 37 42 0
10 -37 -42 0
5 37 44 0
5 -37 -44 0
6 37 51 0
6 -37 -51 0
10 37 52 0
10 -37 -52 0
8 37 54 0
8 -37 -54 0
9 37 55 0
9 -37 -55 0
6 38 45 0
6 -38 -45 0
7 38 46 0
7 -38 -46 0
10 38 47 0
10 -38 -47 0
10 38 52 0
10 -38 -52 0
4 38 54 0
4 -38 -54 0
9 38 55 0
9 -38 -55 0
6 38 58 0
6 -38 -58 0
7 38 59 0
7 -38 -59 0
8 39 43 0
8 -39 -43 0
8 39 46 0
8 -39 -46 0
8 39 47 0
8 -39 -47 0
3 39 49 0
3 -39 -49 0
7 39 53 0
7 -39 -53 0
5 39 58 0
5 -39 -58 0
2 39 60 0
2 -39 -60 0
8 40 42 0
8 -40 -42 0
9 40 43 0
9 -40 -43 0
9 40 52 0
9 -40 -52 0
7 40 55 0
7 -40 -55 0
5 40 56 0
5 -40 -56 0
7 40 58 0
7 -40 -58 0
6 40 60 0
6 -40 -60 0
7 41 43 0
7 -41 -43 0
6 41 46 0
6 -41 -46 0
2 41 48 0
2 -41 -48 0
6 41 50 0
6 -41 -50 0
1 41 53 0
1 -41 -53 0
8 41 54 0
8 -41 -54 0
6 41 56 0
6 -41 -56 0
9 42 46 0
9 -42 -46 0
6 42 50 0
6 -42 -50 0
2 42 51 0
2 -42 -51 0
5 42 52 0
5 -42 -52 0
6 42 53 0
6 -42 -53 0
1 42 56 0
1 -42 -56 0
9 42 58 0
9 -42 -58 0
4 43 47 0
4 -43 -47 0
7 43 49 0
7 -43 -49 0
5 43 52 0
5 -43 -52 0
2 43 55 0
2 -43 -55 0
5 43 56 0
5 -43 -56 0
3 43 60 0
3 -43 -60 0
5 44 55 0
5 -44 -55 0
1 45 52 0
1 -45 -52 0
8 45 53 0
8 -45 -53 0
6 45 58 0
6 -45 -58 0
9 45 60 0
9 -45 -60 0
6 46 50 0
6 -46 -50 0
5 46 54 0
5 -46 -54 0
5 46 55 0
5 -46 -55 0
10 46 60 0
10 -46 -60 0
1 47 49 0
1 -47 -49 0
1 47 52 0
1 -47 -52 0
7 47 55 0
7 -47 -55 0
6 47 56 0
6 -47 -56 0
3 47 57 0
3 -47 -57 0
3 48 50 0
3 -48 -50 0
7 48 57 0
7 -48 -57 0
10 48 60 0
10 -48 -60 0
8 49 52 0
8 -49 -52 0
5 49 53 0
5 -49 -53 0
5 49 56 0
5 -49 -56 0
9 49 58 0
9 -49 -58 0
10 50 51 0
10 -50 -51 0
10 50 56 0
10 -50 -56 0
9 50 57 0
9 -50 -57 0
8 51 55 0
8 -51 -55 0
4 51 56 0
4 -51 -56 0
6 52 57 0
6 -52 -57 0
3 53 54 0
3 -53 -54 0
5 53 60 0
5 -53 -60 0
10 54 56 0
10 -54 -56 0
5 54 59 0
5 -54 -59 0
9 55 56 0
9 -55 -56 0
10 55 59 0
10 -55 -59 0
2 55 60 0
2 -55 -60 0
5 56 57 0
5 -56 -57 0
8 57 58 0
8 -57 -58 0
8 57 60 0
8 -57 -60 0
10 58 59 0
10 -58 -59 0
3 58 60 0
3 -58 -60 0
